\ SCIP STATISTICS
\   Problem name     : data/grafo1.coloring
\   Variables        : 3 (3 binary, 0 integer, 0 implicit integer, 0 continuous)
\   Constraints      : 3
\   Obj. scale       : 1
\   Obj. offset      : 0
Minimize
 Obj: +1 lambda_0 +1 lambda_1 +1 lambda_2
Subject to
 cover0: +1 lambda_0 >= +1
 cover1: +1 lambda_1 >= +1
 cover2: +1 lambda_2 >= +1
Bounds
 0 <= lambda_0 <= 1
 0 <= lambda_1 <= 1
 0 <= lambda_2 <= 1
Binaries
 lambda_0 lambda_1 lambda_2
End
